Minimize
  - 2 y_0 - 5 y_1 - 5 y_2 - 4 y_3 - 3 y_4 - 3 y_5 - 5 y_6 - 4 y_7 - 3 y_8
   - 3 y_9 - 3 y_11 - 7 y_12 - 3 y_13 - 3 y_14 - 4 y_15 - 3 y_16 - 6 y_17
   - 4 y_18 - 4 y_19 + 42 x_0_5 + 29 x_0_9 + 55 x_0_12 + 28 x_0_15
   + 48 x_0_17 + 44 x_0_18 + 73 x_1_4 + 58 x_1_6 + 35 x_1_8 + 45 x_1_9
   + 49 x_1_11 + 81 x_1_14 + 89 x_1_19 + 76 x_2_3 + 80 x_2_4 + 26 x_2_11
   + 61 x_2_13 + 40 x_2_15 + 80 x_2_16 + 90 x_2_19 + 24 x_3_4 + 28 x_3_5
   + 52 x_3_11 + 59 x_3_18 + 19 x_3_19 + 11 x_4_14 + 35 x_4_18 + 29 x_5_10
   + 54 x_5_11 + 19 x_5_19 + 50 x_6_10 + 74 x_6_11 + 69 x_7_9 + 86 x_7_12
   + 19 x_8_15 + 26 x_8_17 + 66 x_8_18 + 80 x_9_12 + 45 x_9_14 + 51 x_9_15
   + 15 x_9_18 + 35 x_10_14 + 59 x_10_17 + 42 x_10_18 + 40 x_11_13
   + 86 x_12_7 + 28 x_12_15 + 85 x_12_16 + 95 x_12_18 + 71 x_13_15
   + 75 x_13_17 + 65 x_13_18 + 46 x_14_18 + 9 x_14_19 + 56 x_15_16
   + 81 x_16_17 + 47 x_16_19 + 74 Constant
Subject To
 c_0: y_15 = 1
 c_1_0: y_0 >= 1
 c_1_1: y_1 >= 1
 c_1_2: y_2 >= 1
 c_1_3: y_3 >= 1
 c_1_4: y_4 + y_5 >= 1
 c_1_5: y_4 + y_5 >= 1
 c_1_6: y_6 >= 1
 c_1_7: y_7 >= 1
 c_1_8: y_8 >= 1
 c_1_9: y_9 + y_16 >= 1
 c_1_10: y_10 >= 1
 c_1_11: y_11 >= 1
 c_1_12: y_12 >= 1
 c_1_13: y_13 >= 1
 c_1_14: y_14 + y_19 >= 1
 c_1_15: y_15 >= 1
 c_1_16: y_9 + y_16 >= 1
 c_1_17: y_17 >= 1
 c_1_18: y_18 >= 1
 c_1_19: y_14 + y_19 >= 1
 c_2_0: - 2 y_0 + x_0_5 + x_0_9 + x_0_12 + x_0_15 + x_0_17 + x_0_18 = 0
 c_2_1: - 2 y_1 + x_1_4 + x_1_6 + x_1_8 + x_1_9 + x_1_11 + x_1_14 + x_1_19
   = 0
 c_2_2: - 2 y_2 + x_2_3 + x_2_4 + x_2_11 + x_2_13 + x_2_15 + x_2_16
   + x_2_19 = 0
 c_2_3: - 2 y_3 + x_2_3 + x_3_4 + x_3_5 + x_3_11 + x_3_18 + x_3_19 = 0
 c_2_4: - 2 y_4 + x_1_4 + x_2_4 + x_3_4 + x_4_14 + x_4_18 = 0
 c_2_5: - 2 y_5 + x_0_5 + x_3_5 + x_5_10 + x_5_11 + x_5_19 = 0
 c_2_6: - 2 y_6 + x_1_6 + x_6_10 + x_6_11 = 0
 c_2_7: - 2 y_7 + x_7_9 + 2 x_12_7 = 0
 c_2_8: - 2 y_8 + x_1_8 + x_8_15 + x_8_17 + x_8_18 = 0
 c_2_9: - 2 y_9 + x_0_9 + x_1_9 + x_7_9 + x_9_12 + x_9_14 + x_9_15 + x_9_18
   = 0
 c_2_10: - 2 y_10 + x_5_10 + x_6_10 + x_10_14 + x_10_17 + x_10_18 = 0
 c_2_11: - 2 y_11 + x_1_11 + x_2_11 + x_3_11 + x_5_11 + x_6_11 + x_11_13
   = 0
 c_2_12: - 2 y_12 + x_0_12 + x_9_12 + 2 x_12_7 + x_12_15 + x_12_16
   + x_12_18 = 0
 c_2_13: - 2 y_13 + x_2_13 + x_11_13 + x_13_15 + x_13_17 + x_13_18 = 0
 c_2_14: - 2 y_14 + x_1_14 + x_4_14 + x_9_14 + x_10_14 + x_14_18 + x_14_19
   = 0
 c_2_15: - 2 y_15 + x_0_15 + x_2_15 + x_8_15 + x_9_15 + x_12_15 + x_13_15
   + x_15_16 = 0
 c_2_16: - 2 y_16 + x_2_16 + x_12_16 + x_15_16 + x_16_17 + x_16_19 = 0
 c_2_17: - 2 y_17 + x_0_17 + x_8_17 + x_10_17 + x_13_17 + x_16_17 = 0
 c_2_18: - 2 y_18 + x_0_18 + x_3_18 + x_4_18 + x_8_18 + x_9_18 + x_10_18
   + x_12_18 + x_13_18 + x_14_18 = 0
 c_2_19: - 2 y_19 + x_1_19 + x_2_19 + x_3_19 + x_5_19 + x_14_19 + x_16_19
   = 0
Bounds
 Constant = 1
Binaries
 y_0 y_1 y_2 y_3 y_4 y_5 y_6 y_7 y_8 y_9 y_10 y_11 y_12 y_13 y_14 y_15 y_16
 y_17 y_18 y_19 x_0_5 x_0_9 x_0_12 x_0_15 x_0_17 x_0_18 x_1_4 x_1_6 x_1_8
 x_1_9 x_1_11 x_1_14 x_1_19 x_2_3 x_2_4 x_2_11 x_2_13 x_2_15 x_2_16 x_2_19
 x_3_4 x_3_5 x_3_11 x_3_18 x_3_19 x_4_14 x_4_18 x_5_10 x_5_11 x_5_19 x_6_10
 x_6_11 x_7_9 x_7_12 x_8_15 x_8_17 x_8_18 x_9_12 x_9_14 x_9_15 x_9_18
 x_10_14 x_10_17 x_10_18 x_11_13 x_12_7 x_12_15 x_12_16 x_12_18 x_13_15
 x_13_17 x_13_18 x_14_18 x_14_19 x_15_16 x_16_17 x_16_19
End
